cpu-bind=MASK - n2lcn0125, task  0  0 [3876323]: mask |--------|--------||--------|--------||--------|----BBBB||--------|--------||||--------|--------||--------|--------||--------|--------||--------|--------|  set
started at Fri Mar 17 12:18:50 CET 2023
Timecheck 10013486.630845612
Set parameter TokenServer to value "license3.uni-paderborn.de"
Warning: Gurobi version mismatch between Python 10.0.1 and C library 10.0.0
Timecheck 10013486.648598721
Timecheck 10013486.648908144
Timecheck 10013486.648944404
Timecheck 10013486.648966214


####################################################################################################
Solve scenario sce_5_26_2 with free vessel operation using the arc flow model
Vessels can omit ports, Demands cannot be rejected
####################################################################################################
Data preprocessing, load /upb/departments/pc2/groups/hpc-prf-winf4/dwetzel/SILSRP/inst_final/sce_5_26_2
and create additional sets and parameters
	|- Read vessel information, number of vessels:	13
	|- Read node information, number of nodes:		739
	|- Read arc information
		|- Number of sailing arcs:			6502
		|- Number of transshipment arcs:	1076
	|- Read container information
		|- Number of demands:		3814
		|- Number of empties (+/-):	373/339
	|- Create additional sets and parameters

Data preprocessing took 	00:00:05.310
####################################################################################################
Create linear model
Set parameter Threads to value 4
	|- Create variables, took	00:00:13.093
	|- Create objective, took	00:00:06.965
	|- Create constraints, took	00:00:24.234
	|- Load heuristic start

Creating model took	00:00:44.336
####################################################################################################
Fix start solution

Set parameter TimeLimit to value 6.3999830051526427e+04
Gurobi Optimizer version 10.0.0 build v10.0.0rc2 (linux64)

CPU model: AMD EPYC 7763 64-Core Processor, instruction set [SSE2|AVX|AVX2]
Thread count: 128 physical cores, 128 logical processors, using up to 4 threads

Optimize a model with 335585 rows, 2544171 columns and 8054752 nonzeros
Model fingerprint: 0x98b8ab1d
Variable types: 2455106 continuous, 89065 integer (89065 binary)
Coefficient statistics:
  Matrix range     [1e+00, 5e+06]
  Objective range  [1e+00, 1e+00]
  Bounds range     [1e+00, 7e+02]
  RHS range        [1e+00, 9e+08]
Found heuristic solution: objective 9.791939e+08
Presolve removed 286290 rows and 2424323 columns (presolve time = 5s) ...
Presolve removed 303058 rows and 2456674 columns
Presolve time: 9.60s
Presolved: 32527 rows, 87497 columns, 251411 nonzeros
Found heuristic solution: objective 1.914997e+08
Variable types: 84114 continuous, 3383 integer (3359 binary)
Found heuristic solution: objective 1.914857e+08
Deterministic concurrent LP optimizer: primal and dual simplex
Showing first log only...


Root simplex log...

Iteration    Objective       Primal Inf.    Dual Inf.      Time
       0    9.2678851e+08   1.343750e+02   8.112156e+07     11s
Concurrent spin time: 0.03s

Solved with dual simplex

Root simplex log...

Iteration    Objective       Primal Inf.    Dual Inf.      Time
    8545    3.7905936e+07   0.000000e+00   0.000000e+00     11s

Root relaxation: objective 3.790594e+07, 8545 iterations, 0.45 seconds (0.27 work units)

    Nodes    |    Current Node    |     Objective Bounds      |     Work
 Expl Unexpl |  Obj  Depth IntInf | Incumbent    BestBd   Gap | It/Node Time

*    0     0               0    3.790594e+07 3.7906e+07  0.00%     -   10s

Explored 1 nodes (8545 simplex iterations) in 10.84 seconds (5.66 work units)
Thread count was 4 (of 128 available processors)

Solution count 4: 3.79059e+07 1.91486e+08 1.915e+08 9.79194e+08 

Optimal solution found (tolerance 1.00e-04)
Best objective 3.790593600000e+07, best bound 3.790593600000e+07, gap 0.0000%

Fixing start solution took	00:00:56.089
####################################################################################################
####################################################################################################
Solve optimization model

Set parameter TimeLimit to value 6.3988865036040545e+04
Gurobi Optimizer version 10.0.0 build v10.0.0rc2 (linux64)

CPU model: AMD EPYC 7763 64-Core Processor, instruction set [SSE2|AVX|AVX2]
Thread count: 128 physical cores, 128 logical processors, using up to 4 threads

Optimize a model with 335045 rows, 2544171 columns and 8054212 nonzeros
Model fingerprint: 0x166dbbc3
Variable types: 2455106 continuous, 89065 integer (89065 binary)
Coefficient statistics:
  Matrix range     [1e+00, 5e+06]
  Objective range  [1e+00, 1e+00]
  Bounds range     [1e+00, 7e+02]
  RHS range        [1e+00, 9e+08]

Loaded MIP start from previous solve with objective 3.79059e+07

Presolve removed 13725 rows and 13329 columns (presolve time = 5s) ...
Presolve removed 14693 rows and 16253 columns (presolve time = 10s) ...
Presolve removed 14693 rows and 16253 columns (presolve time = 15s) ...
Presolve removed 14693 rows and 16253 columns (presolve time = 20s) ...
Presolve removed 14696 rows and 16253 columns
Presolve time: 23.03s
Presolved: 320349 rows, 2527918 columns, 7344785 nonzeros
Variable types: 2443753 continuous, 84165 integer (84164 binary)
Deterministic concurrent LP optimizer: primal simplex, dual simplex, and barrier
Showing barrier log only...

Root barrier log...

Elapsed ordering time = 5s
Elapsed ordering time = 10s
Elapsed ordering time = 15s
Elapsed ordering time = 20s
Elapsed ordering time = 25s
Elapsed ordering time = 30s
Elapsed ordering time = 35s
Elapsed ordering time = 40s
Elapsed ordering time = 45s
Elapsed ordering time = 50s
Elapsed ordering time = 55s
Elapsed ordering time = 60s
Elapsed ordering time = 65s
Elapsed ordering time = 70s
Elapsed ordering time = 75s
Elapsed ordering time = 80s
Elapsed ordering time = 85s
Elapsed ordering time = 90s
Elapsed ordering time = 95s
Elapsed ordering time = 100s
Elapsed ordering time = 105s
Elapsed ordering time = 110s
Elapsed ordering time = 115s
Elapsed ordering time = 120s
Elapsed ordering time = 125s
Elapsed ordering time = 130s
Ordering time: 131.67s

Barrier statistics:
 AA' NZ     : 6.959e+06
 Factor NZ  : 1.987e+08 (roughly 3.0 GB of memory)
 Factor Ops : 4.271e+11 (roughly 7 seconds per iteration)
 Threads    : 2

                  Objective                Residual
Iter       Primal          Dual         Primal    Dual     Compl     Time
   0   9.43996847e+15 -3.41220126e+15  5.67e+09 2.53e+04  1.61e+13   182s
   1   2.33628654e+15 -7.74836952e+14  1.34e+09 7.17e+04  3.91e+12   193s
   2   1.65438595e+14 -2.43921401e+14  9.45e+07 5.83e+03  2.79e+11   205s
   3   3.12993624e+13 -6.87617037e+13  1.78e+07 1.43e-08  5.33e+10   217s
   4   3.99746037e+12 -2.62294671e+13  2.27e+06 1.83e-08  6.83e+09   230s
   5   4.42216049e+11 -1.16521656e+13  2.50e+05 1.25e-08  7.66e+08   244s
   6   3.73588571e+10 -8.14606281e+12  2.10e+04 2.13e-08  6.64e+07   258s
   7   7.18453564e+09 -6.65148496e+12  3.85e+03 1.19e-08  1.30e+07   271s
   8   1.24406571e+09 -4.39946374e+12  4.66e+02 1.75e-08  2.19e+06   286s
   9   5.86727710e+08 -2.13205662e+12  1.17e+02 2.51e-08  6.98e+05   301s
  10   3.33404743e+08 -1.29805823e+12  2.45e+01 1.77e-08  3.15e+05   315s
  11   2.30534734e+08 -3.84607164e+11  2.05e+00 2.98e-08  8.10e+04   329s
  12   1.61878997e+08 -1.00792382e+11  2.82e-01 5.40e-08  2.03e+04   342s
  13   1.23477463e+08 -5.28214005e+10  2.05e-01 6.89e-08  1.06e+04   354s
  14   1.11003253e+08 -3.30126893e+10  9.40e-02 8.75e-08  6.60e+03   366s
  15   1.06979337e+08 -2.23563383e+10  7.96e-02 3.82e-08  4.47e+03   377s
  16   8.80910370e+07 -9.38949420e+09  2.27e-02 2.53e-08  1.88e+03   387s
  17   7.72616062e+07 -5.37359455e+09  5.43e-03 5.52e-08  1.08e+03   398s
  18   6.93304488e+07 -2.10558717e+09  1.43e-03 1.24e-07  4.30e+02   409s
  19   6.18223518e+07 -9.95662100e+08  3.53e-04 1.37e-07  2.09e+02   421s
  20   5.57849160e+07 -6.39585693e+08  1.88e-04 5.96e-08  1.37e+02   433s
  21   5.11064087e+07 -3.70004265e+08  1.19e-04 1.62e-07  8.32e+01   446s
  22   4.34850692e+07 -2.01712415e+08  6.23e-05 4.82e-07  4.84e+01   460s
  23   3.71500343e+07 -8.63984215e+07  3.30e-05 4.97e-08  2.44e+01   475s
  24   3.09698257e+07 -4.22966896e+07  1.54e-05 7.31e-07  1.45e+01   490s
  25   2.73405744e+07 -1.93205741e+07  8.29e-06 5.94e-07  9.22e+00   503s
  26   2.39963649e+07 -5.94063683e+06  3.85e-06 1.47e-06  5.91e+00   517s
  27   2.26459552e+07  2.92042757e+06  2.46e-06 1.73e-06  3.90e+00   530s
  28   2.11583775e+07  8.62422083e+06  1.28e-06 1.74e-06  2.48e+00   543s
  29   2.01512950e+07  1.12300752e+07  6.73e-07 2.81e-06  1.76e+00   554s
  30   1.95576100e+07  1.37784955e+07  3.85e-07 2.12e-06  1.14e+00   566s
  31   1.92044203e+07  1.45148554e+07  2.46e-07 2.46e-06  9.26e-01   576s
  32   1.90319217e+07  1.55496364e+07  1.85e-07 3.44e-06  6.88e-01   587s
  33   1.87686974e+07  1.64809264e+07  9.99e-08 4.69e-06  4.52e-01   598s
  34   1.85687784e+07  1.71655140e+07  4.75e-08 1.25e-06  2.77e-01   610s
  35   1.84711444e+07  1.74640313e+07  2.58e-08 8.14e-07  1.99e-01   622s
  36   1.84155012e+07  1.79163471e+07  1.49e-08 2.82e-07  9.86e-02   635s
  37   1.83673162e+07  1.81363178e+07  5.50e-09 1.65e-06  4.56e-02   648s
  38   1.83427479e+07  1.82735073e+07  2.78e-09 2.89e-06  1.37e-02   662s
  39   1.83300683e+07  1.83208782e+07  4.11e-10 2.21e-06  1.82e-03   678s
  40   1.83280768e+07  1.83266974e+07  4.59e-10 1.06e-06  2.72e-04   694s
  41   1.83279044e+07  1.83278080e+07  4.18e-09 3.15e-06  1.90e-05   709s
  42   1.83278678e+07  1.83278603e+07  9.35e-10 1.16e-06  1.48e-06   723s
  43   1.83278620e+07  1.83278618e+07  1.32e-07 3.89e-06  3.97e-08   737s
  44   1.83278619e+07  1.83278619e+07  1.48e-07 9.71e-05  3.44e-09   750s

Barrier solved model in 44 iterations and 749.53 seconds (697.19 work units)
Optimal objective 1.83278619e+07


Root crossover log...

  303196 DPushes remaining with DInf 1.1013406e-06               750s
   22177 DPushes remaining with DInf 4.2492259e-04               757s
    3517 DPushes remaining with DInf 1.6052256e-05               761s

    9507 PPushes remaining with PInf 1.1274382e-05               761s
       0 PPushes remaining with PInf 0.0000000e+00               765s

  Push phase complete: Pinf 0.0000000e+00, Dinf 6.3671556e-02    765s


Root simplex log...

Iteration    Objective       Primal Inf.    Dual Inf.      Time
  308897    1.8327862e+07   0.000000e+00   6.367077e-02    765s
  308898    1.8327862e+07   0.000000e+00   0.000000e+00    766s
Waiting for other threads to finish...         830s
Waiting for other threads to finish...         893s
Waiting for other threads to finish...         956s
Waiting for other threads to finish...        1020s
Waiting for other threads to finish...        1140s
Concurrent spin time: 377.51s (can be avoided by choosing Method=3)

Solved with barrier
  308898    1.8327862e+07   0.000000e+00   0.000000e+00   1144s

Root relaxation: objective 1.832786e+07, 308898 iterations, 1119.62 seconds (708.22 work units)
Total elapsed time = 1165.98s
Total elapsed time = 1178.38s
Total elapsed time = 1204.26s
Total elapsed time = 1219.09s

    Nodes    |    Current Node    |     Objective Bounds      |     Work
 Expl Unexpl |  Obj  Depth IntInf | Incumbent    BestBd   Gap | It/Node Time

     0     0 1.8328e+07    0 6463 3.7906e+07 1.8328e+07  51.6%     - 1231s
H    0     0                    3.789733e+07 1.8328e+07  51.6%     - 1245s
     0     0          -    0      3.7897e+07 1.8328e+07  51.6%     - 63988s

Cutting planes:
  Gomory: 3
  Cover: 3
  Implied bound: 1594
  MIR: 72
  Flow cover: 2311
  RLT: 5
  Relax-and-lift: 232

Explored 1 nodes (3065488 simplex iterations) in 63989.06 seconds (60905.01 work units)
Thread count was 4 (of 128 available processors)

Solution count 3: 3.78973e+07 3.78973e+07 3.79059e+07 

Time limit reached
Best objective 3.789732600000e+07, best bound 1.832786192175e+07, gap 51.6381%

Solving took 	17:46:29.112
####################################################################################################
####################################################################################################
####################################################################################################
Reached timelimit, but could find a feasible solution
####################################################################################################
Description                          Value
----------------------------  ------------
Objective (min)               37,897,326.0
Cost sailing                  19,380,965.0
Cost port visits              10,206,492.0
Cost transshipment (demands)   1,626,386.0
Cost transshipment (empties)     783,045.0
Penalty delayed demands        4,206,006.0
Revenue Empties                3,152,568.0
Penalty rejected demands       4,847,000.0
Rejected demands (%)                  0.52
Omitted ports (%)                    27.17
Gap (%)                              51.64
####################################################################################################
Export solution
####################################################################################################
Overall time 	17:47:32.410

real	1067m33.074s
user	1105m25.555s
sys	0m31.432s
finished at Sat Mar 18 06:06:23 CET 2023
